;--------------------------------------------------------------------------
; Benchmark created with Zazu
; Benchmark: 		wensley_norm_inv3_2xlen3
; Created:   		2022-01-11 18:12
; Generator of the ideal: 
; 		 -2*b00*y00 + a00*d00 + 2*b00*y - a*d00
; 		 -b*d00 + b00*d
; 		 a*d - 2*b*y + 2*b*y00 - a00*d
; Testing invariant: -a^4*b*d^3*y - 2*a^3*b^5*d*y^7 - a^3*a00*d + a^3*d*y - 2*a*b^2*d*y^4*y00 + a*a00*b*d^2*y^4 + a^3*a00*b*d^3*y - 2*a^3*b*y - a^4*a00*b^4*d^3*y^4 - 2*a^4*b^5*d^2*y^5 + 2*a^2*b^2*d^2*y^3 + a^2*a00*b*d^2*y^3 - 2*a^4*b^4*y^3*y00 - 2*a^2*b^2*d^2*y^2*y00 - a^3*b*d^2*y^3 - a^2*b*d^2*y^4 + a^4*d - 2*a^3*b^2*d^2*y*y00 + 2*a^4*b^5*d^2*y^4*y00 + 2*a^2*b^2*d*y^4 + 2*a^2*b*y*y00 + a^4*a00*b^3*d*y^3 + 2*a^3*b*y00 + 2*a*b^2*d*y^5 + 2*a^4*b^4*y^4 - a^5*b^3*d*y^3 - 2*a^2*b*y^2 + a^2*a00*b*d^3*y^2 - a^3*a00*b^4*d^2*y^6 + 2*a^3*b^5*d*y^6*y00 + 2*a^3*b^2*d^2*y^2 + a^4*b^4*d^2*y^6 + a^5*b^4*d^3*y^4 - a^2*a00*d*y - a^3*b*d^3*y^2 - 2*a^2*b^2*d*y^3*y00
;--------------------------------------------------------------------------

(set-logic NRA)
(set-option :produce-proofs true)

(declare-const a00 Real)
(declare-const b00 Real)
(declare-const d00 Real)
(declare-const y00 Real)

(assert 
	(exists
		((a Real) (b Real) (d Real) (y Real))
		(and
			(= (- (+ (* (- 2) b00 y00) (* a00 d00) (* 2 b00 y)) (* a d00)) 0)
			(= (+ (* (- 1) b d00) (* b00 d)) 0)
			(= (- (+ (- (* a d) (* 2 b y)) (* 2 b y00)) (* a00 d)) 0)

			(or
				(not (= (- (+ (- (+ (- (+ (- (+ (- (+ (- (+ (- (+ (- (* (- 1) a a a a (/ b 2) (/ d 2) (/ d 2) (/ d 2) y) (* 2 a a a (/ b 2) (/ b 2) (/ b 2) (/ b 2) (/ b 2) (/ d 2) y y y y y y y) (* a a a a00 (/ d 2))) (* a a a (/ d 2) y)) (* 2 a (/ b 2) (/ b 2) (/ d 2) y y y y y00)) (* a a00 (/ b 2) (/ d 2) (/ d 2) y y y y) (* a a a a00 (/ b 2) (/ d 2) (/ d 2) (/ d 2) y)) (* 2 a a a (/ b 2) y) (* a a a a a00 (/ b 2) (/ b 2) (/ b 2) (/ b 2) (/ d 2) (/ d 2) (/ d 2) y y y y) (* 2 a a a a (/ b 2) (/ b 2) (/ b 2) (/ b 2) (/ b 2) (/ d 2) (/ d 2) y y y y y)) (* 2 a a (/ b 2) (/ b 2) (/ d 2) (/ d 2) y y y) (* a a a00 (/ b 2) (/ d 2) (/ d 2) y y y)) (* 2 a a a a (/ b 2) (/ b 2) (/ b 2) (/ b 2) y y y y00) (* 2 a a (/ b 2) (/ b 2) (/ d 2) (/ d 2) y y y00) (* a a a (/ b 2) (/ d 2) (/ d 2) y y y) (* a a (/ b 2) (/ d 2) (/ d 2) y y y y)) (* a a a a (/ d 2))) (* 2 a a a (/ b 2) (/ b 2) (/ d 2) (/ d 2) y y00)) (* 2 a a a a (/ b 2) (/ b 2) (/ b 2) (/ b 2) (/ b 2) (/ d 2) (/ d 2) y y y y y00) (* 2 a a (/ b 2) (/ b 2) (/ d 2) y y y y) (* 2 a a (/ b 2) y y00) (* a a a a a00 (/ b 2) (/ b 2) (/ b 2) (/ d 2) y y y) (* 2 a a a (/ b 2) y00) (* 2 a (/ b 2) (/ b 2) (/ d 2) y y y y y) (* 2 a a a a (/ b 2) (/ b 2) (/ b 2) (/ b 2) y y y y)) (* a a a a a (/ b 2) (/ b 2) (/ b 2) (/ d 2) y y y) (* 2 a a (/ b 2) y y)) (* a a a00 (/ b 2) (/ d 2) (/ d 2) (/ d 2) y y)) (* a a a a00 (/ b 2) (/ b 2) (/ b 2) (/ b 2) (/ d 2) (/ d 2) y y y y y y)) (* 2 a a a (/ b 2) (/ b 2) (/ b 2) (/ b 2) (/ b 2) (/ d 2) y y y y y y y00) (* 2 a a a (/ b 2) (/ b 2) (/ d 2) (/ d 2) y y) (* a a a a (/ b 2) (/ b 2) (/ b 2) (/ b 2) (/ d 2) (/ d 2) y y y y y y) (* a a a a a (/ b 2) (/ b 2) (/ b 2) (/ b 2) (/ d 2) (/ d 2) (/ d 2) y y y y)) (* a a a00 (/ d 2) y) (* a a a (/ b 2) (/ d 2) (/ d 2) (/ d 2) y y) (* 2 a a (/ b 2) (/ b 2) (/ d 2) y y y y00)) 0))
				(not (= (- (+ (- (+ (- (+ (- (+ (- (+ (- (+ (- (+ (- (* (- 1) (+ a b) (+ a b) (+ a b) (+ a b) (/ b 2) (/ d 2) (/ d 2) (/ d 2) (+ y (/ d 2))) (* 2 (+ a b) (+ a b) (+ a b) (/ b 2) (/ b 2) (/ b 2) (/ b 2) (/ b 2) (/ d 2) (+ y (/ d 2)) (+ y (/ d 2)) (+ y (/ d 2)) (+ y (/ d 2)) (+ y (/ d 2)) (+ y (/ d 2)) (+ y (/ d 2))) (* (+ a b) (+ a b) (+ a b) a00 (/ d 2))) (* (+ a b) (+ a b) (+ a b) (/ d 2) (+ y (/ d 2)))) (* 2 (+ a b) (/ b 2) (/ b 2) (/ d 2) (+ y (/ d 2)) (+ y (/ d 2)) (+ y (/ d 2)) (+ y (/ d 2)) y00)) (* (+ a b) a00 (/ b 2) (/ d 2) (/ d 2) (+ y (/ d 2)) (+ y (/ d 2)) (+ y (/ d 2)) (+ y (/ d 2))) (* (+ a b) (+ a b) (+ a b) a00 (/ b 2) (/ d 2) (/ d 2) (/ d 2) (+ y (/ d 2)))) (* 2 (+ a b) (+ a b) (+ a b) (/ b 2) (+ y (/ d 2))) (* (+ a b) (+ a b) (+ a b) (+ a b) a00 (/ b 2) (/ b 2) (/ b 2) (/ b 2) (/ d 2) (/ d 2) (/ d 2) (+ y (/ d 2)) (+ y (/ d 2)) (+ y (/ d 2)) (+ y (/ d 2))) (* 2 (+ a b) (+ a b) (+ a b) (+ a b) (/ b 2) (/ b 2) (/ b 2) (/ b 2) (/ b 2) (/ d 2) (/ d 2) (+ y (/ d 2)) (+ y (/ d 2)) (+ y (/ d 2)) (+ y (/ d 2)) (+ y (/ d 2)))) (* 2 (+ a b) (+ a b) (/ b 2) (/ b 2) (/ d 2) (/ d 2) (+ y (/ d 2)) (+ y (/ d 2)) (+ y (/ d 2))) (* (+ a b) (+ a b) a00 (/ b 2) (/ d 2) (/ d 2) (+ y (/ d 2)) (+ y (/ d 2)) (+ y (/ d 2)))) (* 2 (+ a b) (+ a b) (+ a b) (+ a b) (/ b 2) (/ b 2) (/ b 2) (/ b 2) (+ y (/ d 2)) (+ y (/ d 2)) (+ y (/ d 2)) y00) (* 2 (+ a b) (+ a b) (/ b 2) (/ b 2) (/ d 2) (/ d 2) (+ y (/ d 2)) (+ y (/ d 2)) y00) (* (+ a b) (+ a b) (+ a b) (/ b 2) (/ d 2) (/ d 2) (+ y (/ d 2)) (+ y (/ d 2)) (+ y (/ d 2))) (* (+ a b) (+ a b) (/ b 2) (/ d 2) (/ d 2) (+ y (/ d 2)) (+ y (/ d 2)) (+ y (/ d 2)) (+ y (/ d 2)))) (* (+ a b) (+ a b) (+ a b) (+ a b) (/ d 2))) (* 2 (+ a b) (+ a b) (+ a b) (/ b 2) (/ b 2) (/ d 2) (/ d 2) (+ y (/ d 2)) y00)) (* 2 (+ a b) (+ a b) (+ a b) (+ a b) (/ b 2) (/ b 2) (/ b 2) (/ b 2) (/ b 2) (/ d 2) (/ d 2) (+ y (/ d 2)) (+ y (/ d 2)) (+ y (/ d 2)) (+ y (/ d 2)) y00) (* 2 (+ a b) (+ a b) (/ b 2) (/ b 2) (/ d 2) (+ y (/ d 2)) (+ y (/ d 2)) (+ y (/ d 2)) (+ y (/ d 2))) (* 2 (+ a b) (+ a b) (/ b 2) (+ y (/ d 2)) y00) (* (+ a b) (+ a b) (+ a b) (+ a b) a00 (/ b 2) (/ b 2) (/ b 2) (/ d 2) (+ y (/ d 2)) (+ y (/ d 2)) (+ y (/ d 2))) (* 2 (+ a b) (+ a b) (+ a b) (/ b 2) y00) (* 2 (+ a b) (/ b 2) (/ b 2) (/ d 2) (+ y (/ d 2)) (+ y (/ d 2)) (+ y (/ d 2)) (+ y (/ d 2)) (+ y (/ d 2))) (* 2 (+ a b) (+ a b) (+ a b) (+ a b) (/ b 2) (/ b 2) (/ b 2) (/ b 2) (+ y (/ d 2)) (+ y (/ d 2)) (+ y (/ d 2)) (+ y (/ d 2)))) (* (+ a b) (+ a b) (+ a b) (+ a b) (+ a b) (/ b 2) (/ b 2) (/ b 2) (/ d 2) (+ y (/ d 2)) (+ y (/ d 2)) (+ y (/ d 2))) (* 2 (+ a b) (+ a b) (/ b 2) (+ y (/ d 2)) (+ y (/ d 2)))) (* (+ a b) (+ a b) a00 (/ b 2) (/ d 2) (/ d 2) (/ d 2) (+ y (/ d 2)) (+ y (/ d 2)))) (* (+ a b) (+ a b) (+ a b) a00 (/ b 2) (/ b 2) (/ b 2) (/ b 2) (/ d 2) (/ d 2) (+ y (/ d 2)) (+ y (/ d 2)) (+ y (/ d 2)) (+ y (/ d 2)) (+ y (/ d 2)) (+ y (/ d 2)))) (* 2 (+ a b) (+ a b) (+ a b) (/ b 2) (/ b 2) (/ b 2) (/ b 2) (/ b 2) (/ d 2) (+ y (/ d 2)) (+ y (/ d 2)) (+ y (/ d 2)) (+ y (/ d 2)) (+ y (/ d 2)) (+ y (/ d 2)) y00) (* 2 (+ a b) (+ a b) (+ a b) (/ b 2) (/ b 2) (/ d 2) (/ d 2) (+ y (/ d 2)) (+ y (/ d 2))) (* (+ a b) (+ a b) (+ a b) (+ a b) (/ b 2) (/ b 2) (/ b 2) (/ b 2) (/ d 2) (/ d 2) (+ y (/ d 2)) (+ y (/ d 2)) (+ y (/ d 2)) (+ y (/ d 2)) (+ y (/ d 2)) (+ y (/ d 2))) (* (+ a b) (+ a b) (+ a b) (+ a b) (+ a b) (/ b 2) (/ b 2) (/ b 2) (/ b 2) (/ d 2) (/ d 2) (/ d 2) (+ y (/ d 2)) (+ y (/ d 2)) (+ y (/ d 2)) (+ y (/ d 2)))) (* (+ a b) (+ a b) a00 (/ d 2) (+ y (/ d 2))) (* (+ a b) (+ a b) (+ a b) (/ b 2) (/ d 2) (/ d 2) (/ d 2) (+ y (/ d 2)) (+ y (/ d 2))) (* 2 (+ a b) (+ a b) (/ b 2) (/ b 2) (/ d 2) (+ y (/ d 2)) (+ y (/ d 2)) (+ y (/ d 2)) y00)) 0))
			)
		)
	)
)
(check-sat)
(get-proof)
(exit)
